Minimize
  - 25 y_0 - 26 y_1 - 20 y_2 - 17 y_3 - 24 y_4 - 19 y_5 - 17 y_6 - 10 y_7
   - 23 y_8 - 31 y_9 - 21 y_10 - 17 y_11 - 18 y_12 - 11 y_14 - 24 y_15
   - 12 y_16 - 13 y_17 - 23 y_18 - 19 y_19 + 36 x_0_3 + 51 x_0_4 + 36 x_0_5
   + 85 x_0_7 + 88 x_0_8 + 41 x_0_9 + 66 x_0_14 + 32 x_0_18 + 62 x_0_19
   + 39 x_1_6 + 78 x_1_7 + 64 x_1_8 + 65 x_1_11 + 43 x_1_15 + 64 x_1_16
   + 12 x_1_18 + 45 x_1_19 + 51 x_2_3 + 117 x_2_4 + 36 x_2_7 + 28 x_2_10
   + 77 x_2_12 + 78 x_2_13 + 39 x_2_14 + 91 x_2_15 + 79 x_2_17 + 20 x_2_19
   + 67 x_3_4 + 9 x_3_5 + 49 x_3_7 + 60 x_3_8 + 54 x_3_9 + 41 x_3_11
   + 31 x_3_14 + 25 x_3_18 + 31 x_3_19 + 85 x_4_6 + 96 x_4_10 + 96 x_4_13
   + 86 x_4_14 + 38 x_4_15 + 46 x_4_17 + 78 x_4_18 + 98 x_4_19 + 47 x_5_9
   + 49 x_5_11 + 45 x_5_15 + 58 x_6_11 + 45 x_6_12 + 59 x_6_15 + 44 x_6_16
   + 51 x_6_17 + 13 x_6_19 + 95 x_7_9 + 67 x_7_12 + 42 x_7_13 + 51 x_7_16
   + 59 x_7_17 + 100 x_8_11 + 87 x_8_12 + 98 x_8_15 + 84 x_8_16 + 92 x_8_17
   + 49 x_9_10 + 122 x_9_13 + 54 x_9_15 + 85 x_9_17 + 30 x_9_18 + 59 x_9_19
   + 71 x_10_11 + 83 x_10_13 + 66 x_10_15 + 25 x_10_18 + 18 x_11_12
   + 66 x_11_13 + 55 x_11_14 + 71 x_11_19 + 72 x_12_13 + 49 x_12_14
   + 23 x_12_16 + 23 x_12_17 + 42 x_12_18 + 58 x_12_19 + 52 x_13_17
   + 92 x_13_18 + 75 x_13_19 + 43 x_14_17 + 51 x_14_18 + 31 x_14_19
   + 47 x_15_17 + 72 x_15_19 + 56 x_16_19 + 8 x_17_16 + 59 x_17_18
   + 34 x_18_19 + 34 x_18_19 + 34 x_18_19 + 34 x_18_19 + 34 x_18_19
   + 34 x_18_19 + 34 x_18_19 + 34 x_18_19 + 34 x_18_19 + 34 x_18_19
   + 34 x_18_19 + 34 x_18_19 + 34 x_18_19 + 34 x_18_19 + 34 x_18_19
   + 34 x_18_19 + 34 x_18_19 + 34 x_18_19 + 34 x_18_19 + 34 x_18_19
   + 34 x_18_19 + 34 x_18_19 + 34 x_18_19 + 34 x_18_19 + 34 x_18_19
   + 34 x_18_19 + 34 x_18_19 + 34 x_18_19 + 34 x_18_19 + 34 x_18_19
   + 34 x_18_19 + 34 x_18_19 + 34 x_18_19 + 34 x_18_19 + 34 x_18_19
   + 34 x_18_19 + 34 x_18_19 + 34 x_18_19 + 34 x_18_19 + 34 x_18_19
   + 34 x_18_19 + 34 x_18_19 + 34 x_18_19 + 34 x_18_19 + 34 x_18_19
   + 34 x_18_19 + 34 x_18_19 + 34 x_18_19 + 34 x_18_19 + 34 x_18_19
   + 34 x_18_19 + 34 x_18_19 + 34 x_18_19 + 34 x_18_19 + 34 x_18_19
   + 34 x_18_19 + 34 x_18_19 + 34 x_18_19 + 34 x_18_19 + 34 x_18_19
   + 34 x_18_19 + 34 x_18_19 + 34 x_18_19 + 34 x_18_19 + 34 x_18_19
   + 34 x_18_19 + 34 x_18_19 + 34 x_18_19 + 34 x_18_19 + 34 x_18_19
   + 34 x_18_19 + 34 x_18_19 + 34 x_18_19 + 34 x_18_19 + 34 x_18_19
   + 34 x_18_19 + 34 x_18_19 + 34 x_18_19 + 34 x_18_19 + 34 x_18_19
   + 34 x_18_19 + 34 x_18_19 + 34 x_18_19 + 34 x_18_19 + 34 x_18_19
   + 34 x_18_19 + 34 x_18_19 + 34 x_18_19 + 34 x_18_19 + 34 x_18_19
   + 34 x_18_19 + 34 x_18_19 + 34 x_18_19 + 34 x_18_19 + 34 x_18_19
   + 34 x_18_19 + 34 x_18_19 + 34 x_18_19 + 34 x_18_19 + 34 x_18_19
   + 34 x_18_19 + 34 x_18_19 + 34 x_18_19 + 34 x_18_19 + 34 x_18_19
   + 34 x_18_19 + 34 x_18_19 + 34 x_18_19 + 34 x_18_19 + 34 x_18_19
   + 34 x_18_19 + 34 x_18_19 + 34 x_18_19 + 34 x_18_19 + 34 x_18_19
   + 34 x_18_19 + 34 x_18_19 + 34 x_18_19 + 34 x_18_19 + 34 x_18_19
   + 34 x_18_19 + 34 x_18_19 + 34 x_18_19 + 34 x_18_19 + 34 x_18_19
   + 34 x_18_19 + 34 x_18_19 + 34 x_18_19 + 34 x_18_19 + 34 x_18_19
   + 34 x_18_19 + 34 x_18_19 + 34 x_18_19 + 34 x_18_19 + 34 x_18_19
   + 34 x_18_19 + 34 x_18_19 + 34 x_18_19 + 34 x_18_19 + 34 x_18_19
   + 34 x_18_19 + 34 x_18_19 + 34 x_18_19 + 34 x_18_19 + 34 x_18_19
   + 34 x_18_19 + 34 x_18_19 + 34 x_18_19 + 34 x_18_19 + 34 x_18_19
   + 34 x_18_19 + 34 x_18_19 + 34 x_18_19 + 34 x_18_19 + 34 x_18_19
   + 34 x_18_19 + 34 x_18_19 + 34 x_18_19 + 34 x_18_19 + 34 x_18_19
   + 34 x_18_19 + 34 x_18_19 + 34 x_18_19 + 34 x_18_19 + 34 x_18_19
   + 34 x_18_19 + 34 x_18_19 + 34 x_18_19 + 34 x_18_19 + 34 x_18_19
   + 34 x_18_19 + 34 x_18_19 + 34 x_18_19 + 34 x_18_19 + 34 x_18_19
   + 34 x_18_19 + 34 x_18_19 + 34 x_18_19 + 34 x_18_19 + 34 x_18_19
   + 34 x_18_19 + 34 x_18_19 + 34 x_18_19 + 34 x_18_19 + 34 x_18_19
   + 34 x_18_19 + 34 x_18_19 + 34 x_18_19 + 34 x_18_19 + 34 x_18_19
   + 34 x_18_19 + 34 x_18_19 + 34 x_18_19 + 34 x_18_19 + 34 x_18_19
   + 34 x_18_19 + 34 x_18_19 + 34 x_18_19 + 34 x_18_19 + 34 x_18_19
   + 34 x_18_19 + 34 x_18_19 + 34 x_18_19 + 34 x_18_19 + 34 x_18_19
   + 34 x_18_19 + 34 x_18_19 + 34 x_18_19 + 34 x_18_19 + 34 x_18_19
   + 34 x_18_19 + 34 x_18_19 + 34 x_18_19 + 34 x_18_19 + 34 x_18_19
   + 34 x_18_19 + 34 x_18_19 + 34 x_18_19 + 34 x_18_19 + 34 x_18_19
   + 34 x_18_19 + 34 x_18_19 + 34 x_18_19 + 34 x_18_19 + 34 x_18_19
   + 34 x_18_19 + 34 x_18_19 + 34 x_18_19 + 34 x_18_19 + 34 x_18_19
   + 34 x_18_19 + 34 x_18_19 + 34 x_18_19 + 34 x_18_19 + 34 x_18_19
   + 34 x_18_19 + 34 x_18_19 + 34 x_18_19 + 34 x_18_19 + 34 x_18_19
   + 34 x_18_19 + 34 x_18_19 + 34 x_18_19 + 34 x_18_19 + 34 x_18_19
   + 34 x_18_19 + 34 x_18_19 + 34 x_18_19 + 34 x_18_19 + 34 x_18_19
   + 34 x_18_19 + 34 x_18_19 + 34 x_18_19 + 34 x_18_19 + 34 x_18_19
   + 34 x_18_19 + 34 x_18_19 + 34 x_18_19 + 34 x_18_19 + 34 x_18_19
   + 34 x_18_19 + 34 x_18_19 + 34 x_18_19 + 34 x_18_19 + 34 x_18_19
   + 34 x_18_19 + 34 x_18_19 + 34 x_18_19 + 34 x_18_19 + 34 x_18_19
   + 34 x_18_19 + 34 x_18_19 + 34 x_18_19 + 34 x_18_19 + 34 x_18_19
   + 34 x_18_19 + 34 x_18_19 + 34 x_18_19 + 34 x_18_19 + 34 x_18_19
   + 34 x_18_19 + 34 x_18_19 + 34 x_18_19 + 34 x_18_19 + 34 x_18_19
   + 34 x_18_19 + 34 x_18_19 + 34 x_18_19 + 34 x_18_19 + 34 x_18_19
   + 34 x_18_19 + 34 x_18_19 + 34 x_18_19 + 34 x_18_19 + 34 x_18_19
   + 34 x_18_19 + 34 x_18_19 + 34 x_18_19 + 34 x_18_19 + 34 x_18_19
   + 34 x_18_19 + 34 x_18_19 + 34 x_18_19 + 34 x_18_19 + 34 x_18_19
   + 34 x_18_19 + 34 x_18_19 + 34 x_18_19 + 34 x_18_19 + 34 x_18_19
   + 34 x_18_19 + 34 x_18_19 + 34 x_18_19 + 34 x_18_19 + 34 x_18_19
   + 34 x_18_19 + 34 x_18_19 + 34 x_18_19 + 34 x_18_19 + 34 x_18_19
   + 34 x_18_19 + 34 x_18_19 + 34 x_18_19 + 34 x_18_19 + 34 x_18_19
   + 34 x_18_19 + 34 x_18_19 + 34 x_18_19 + 34 x_18_19 + 34 x_18_19
   + 34 x_18_19 + 34 x_18_19 + 34 x_18_19 + 34 x_18_19 + 34 x_18_19
   + 34 x_18_19 + 34 x_18_19 + 34 x_18_19 + 34 x_18_19 + 34 x_18_19
   + 34 x_18_19 + 34 x_18_19 + 34 x_18_19 + 34 x_18_19 + 34 x_18_19
   + 34 x_18_19 + 34 x_18_19 + 34 x_18_19 + 34 x_18_19 + 34 x_18_19
   + 34 x_18_19 + 34 x_18_19 + 34 x_18_19 + 34 x_18_19 + 34 x_18_19
   + 34 x_18_19 + 34 x_18_19 + 34 x_18_19 + 34 x_18_19 + 34 x_18_19
   + 34 x_18_19 + 34 x_18_19 + 34 x_18_19 + 34 x_18_19 + 34 x_18_19
   + 34 x_18_19 + 34 x_18_19 + 34 x_18_19 + 34 x_18_19 + 34 x_18_19
   + 34 x_18_19 + 34 x_18_19 + 34 x_18_19 + 34 x_18_19 + 34 x_18_19
   + 34 x_18_19 + 34 x_18_19 + 34 x_18_19 + 34 x_18_19 + 34 x_18_19
   + 34 x_18_19 + 34 x_18_19 + 34 x_18_19 + 34 x_18_19 + 34 x_18_19
   + 34 x_18_19 + 34 x_18_19 + 34 x_18_19 + 34 x_18_19 + 34 x_18_19
   + 34 x_18_19 + 34 x_18_19 + 34 x_18_19 + 34 x_18_19 + 34 x_18_19
   + 34 x_18_19 + 34 x_18_19 + 34 x_18_19 + 34 x_18_19 + 34 x_18_19
   + 34 x_18_19 + 34 x_18_19 + 34 x_18_19 + 34 x_18_19 + 34 x_18_19
   + 34 x_18_19 + 34 x_18_19 + 34 x_18_19 + 34 x_18_19 + 34 x_18_19
   + 34 x_18_19 + 34 x_18_19 + 34 x_18_19 + 34 x_18_19 + 34 x_18_19
   + 34 x_18_19 + 34 x_18_19 + 34 x_18_19 + 34 x_18_19 + 34 x_18_19
   + 34 x_18_19 + 34 x_18_19 + 34 x_18_19 + 34 x_18_19 + 34 x_18_19
   + 34 x_18_19 + 34 x_18_19 + 34 x_18_19 + 34 x_18_19 + 34 x_18_19
   + 34 x_18_19 + 34 x_18_19 + 34 x_18_19 + 34 x_18_19 + 34 x_18_19
   + 34 x_18_19 + 34 x_18_19 + 34 x_18_19 + 34 x_18_19 + 34 x_18_19
   + 34 x_18_19 + 34 x_18_19 + 34 x_18_19 + 34 x_18_19 + 34 x_18_19
   + 34 x_18_19 + 34 x_18_19 + 34 x_18_19 + 34 x_18_19 + 34 x_18_19
   + 34 x_18_19 + 34 x_18_19 + 34 x_18_19 + 34 x_18_19 + 34 x_18_19
   + 34 x_18_19 + 34 x_18_19 + 34 x_18_19 + 34 x_18_19 + 34 x_18_19
   + 34 x_18_19 + 34 x_18_19 + 34 x_18_19 + 34 x_18_19 + 34 x_18_19
   + 34 x_18_19 + 34 x_18_19 + 34 x_18_19 + 34 x_18_19 + 34 x_18_19
   + 34 x_18_19 + 34 x_18_19 + 34 x_18_19 + 34 x_18_19 + 34 x_18_19
   + 34 x_18_19 + 34 x_18_19 + 34 x_18_19 + 34 x_18_19 + 34 x_18_19
   + 34 x_18_19 + 34 x_18_19 + 34 x_18_19 + 34 x_18_19 + 34 x_18_19
   + 34 x_18_19 + 34 x_18_19 + 34 x_18_19 + 34 x_18_19 + 34 x_18_19
   + 34 x_18_19 + 34 x_18_19 + 34 x_18_19 + 34 x_18_19 + 34 x_18_19
   + 34 x_18_19 + 34 x_18_19 + 34 x_18_19 + 34 x_18_19 + 34 x_18_19
   + 34 x_18_19 + 34 x_18_19 + 34 x_18_19 + 34 x_18_19 + 34 x_18_19
   + 34 x_18_19 + 34 x_18_19 + 34 x_18_19 + 34 x_18_19 + 34 x_18_19
   + 34 x_18_19 + 34 x_18_19 + 34 x_18_19 + 34 x_18_19 + 34 x_18_19
   + 34 x_18_19 + 34 x_18_19 + 34 x_18_19 + 34 x_18_19 + 34 x_18_19
   + 34 x_18_19 + 34 x_18_19 + 34 x_18_19 + 34 x_18_19 + 34 x_18_19
   + 34 x_18_19 + 34 x_18_19 + 34 x_18_19 + 34 x_18_19 + 34 x_18_19
   + 34 x_18_19 + 34 x_18_19 + 34 x_18_19 + 34 x_18_19 + 34 x_18_19
   + 34 x_18_19 + 34 x_18_19 + 34 x_18_19 + 34 x_18_19 + 34 x_18_19
   + 34 x_18_19 + 34 x_18_19 + 34 x_18_19 + 34 x_18_19 + 34 x_18_19
   + 34 x_18_19 + 34 x_18_19 + 34 x_18_19 + 34 x_18_19 + 34 x_18_19
   + 34 x_18_19 + 34 x_18_19 + 34 x_18_19 + 34 x_18_19 + 34 x_18_19
   + 34 x_18_19 + 34 x_18_19 + 34 x_18_19 + 34 x_18_19 + 34 x_18_19
   + 34 x_18_19 + 34 x_18_19 + 34 x_18_19 + 34 x_18_19 + 34 x_18_19
   + 34 x_18_19 + 34 x_18_19 + 34 x_18_19 + 34 x_18_19 + 34 x_18_19
   + 34 x_18_19 + 34 x_18_19 + 34 x_18_19 + 34 x_18_19 + 34 x_18_19
   + 34 x_18_19 + 34 x_18_19 + 34 x_18_19 + 34 x_18_19 + 34 x_18_19
   + 34 x_18_19 + 34 x_18_19 + 34 x_18_19 + 34 x_18_19 + 34 x_18_19
   + 34 x_18_19 + 34 x_18_19 + 34 x_18_19 + 34 x_18_19 + 34 x_18_19
   + 34 x_18_19 + 34 x_18_19 + 34 x_18_19 + 34 x_18_19 + 34 x_18_19
   + 34 x_18_19 + 34 x_18_19 + 34 x_18_19 + 34 x_18_19 + 34 x_18_19
   + 34 x_18_19 + 34 x_18_19 + 34 x_18_19 + 34 x_18_19 + 34 x_18_19
   + 34 x_18_19 + 34 x_18_19 + 34 x_18_19 + 34 x_18_19 + 34 x_18_19
   + 34 x_18_19 + 34 x_18_19 + 34 x_18_19 + 34 x_18_19 + 34 x_18_19
   + 34 x_18_19 + 34 x_18_19 + 34 x_18_19 + 34 x_18_19 + 34 x_18_19
   + 34 x_18_19 + 34 x_18_19 + 34 x_18_19 + 34 x_18_19 + 34 x_18_19
   + 34 x_18_19 + 34 x_18_19 + 34 x_18_19 + 34 x_18_19 + 34 x_18_19
   + 34 x_18_19 + 34 x_18_19 + 34 x_18_19 + 34 x_18_19 + 34 x_18_19
   + 34 x_18_19 + 34 x_18_19 + 34 x_18_19 + 34 x_18_19 + 34 x_18_19
   + 34 x_18_19 + 34 x_18_19 + 34 x_18_19 + 34 x_18_19 + 34 x_18_19
   + 34 x_18_19 + 34 x_18_19 + 34 x_18_19 + 34 x_18_19 + 34 x_18_19
   + 34 x_18_19 + 34 x_18_19 + 34 x_18_19 + 34 x_18_19 + 34 x_18_19
   + 34 x_18_19 + 34 x_18_19 + 34 x_18_19 + 34 x_18_19 + 34 x_18_19
   + 34 x_18_19 + 34 x_18_19 + 34 x_18_19 + 34 x_18_19 + 34 x_18_19
   + 34 x_18_19 + 34 x_18_19 + 34 x_18_19 + 34 x_18_19 + 34 x_18_19
   + 34 x_18_19 + 34 x_18_19 + 34 x_18_19 + 34 x_18_19 + 34 x_18_19
   + 34 x_18_19 + 34 x_18_19 + 34 x_18_19 + 34 x_18_19 + 34 x_18_19
   + 34 x_18_19 + 34 x_18_19 + 34 x_18_19 + 34 x_18_19 + 34 x_18_19
   + 34 x_18_19 + 34 x_18_19 + 34 x_18_19 + 34 x_18_19 + 34 x_18_19
   + 34 x_18_19 + 34 x_18_19 + 34 x_18_19 + 34 x_18_19 + 34 x_18_19
   + 34 x_18_19 + 34 x_18_19 + 34 x_18_19 + 34 x_18_19 + 34 x_18_19
   + 34 x_18_19 + 34 x_18_19 + 34 x_18_19 + 34 x_18_19 + 34 x_18_19
   + 34 x_18_19 + 34 x_18_19 + 34 x_18_19 + 34 x_18_19 + 34 x_18_19
   + 34 x_18_19 + 34 x_18_19 + 34 x_18_19 + 34 x_18_19 + 34 x_18_19
   + 34 x_18_19 + 34 x_18_19 + 34 x_18_19 + 34 x_18_19 + 34 x_18_19
   + 34 x_18_19 + 34 x_18_19 + 34 x_18_19 + 34 x_18_19 + 34 x_18_19
   + 34 x_18_19 + 34 x_18_19 + 34 x_18_19 + 34 x_18_19 + 34 x_18_19
   + 34 x_18_19 + 34 x_18_19 + 34 x_18_19 + 34 x_18_19 + 34 x_18_19
   + 34 x_18_19 + 34 x_18_19 + 34 x_18_19 + 34 x_18_19 + 34 x_18_19
   + 34 x_18_19 + 34 x_18_19 + 34 x_18_19 + 34 x_18_19 + 34 x_18_19
   + 34 x_18_19 + 34 x_18_19 + 34 x_18_19 + 34 x_18_19 + 34 x_18_19
   + 34 x_18_19 + 34 x_18_19 + 34 x_18_19 + 34 x_18_19 + 34 x_18_19
   + 34 x_18_19 + 34 x_18_19 + 34 x_18_19 + 34 x_18_19 + 34 x_18_19
   + 34 x_18_19 + 34 x_18_19 + 34 x_18_19 + 34 x_18_19 + 34 x_18_19
   + 34 x_18_19 + 34 x_18_19 + 34 x_18_19 + 34 x_18_19 + 34 x_18_19
   + 34 x_18_19 + 34 x_18_19 + 34 x_18_19 + 34 x_18_19 + 34 x_18_19
   + 34 x_18_19 + 34 x_18_19 + 34 x_18_19 + 34 x_18_19 + 34 x_18_19
   + 34 x_18_19 + 34 x_18_19 + 34 x_18_19 + 34 x_18_19 + 34 x_18_19
   + 34 x_18_19 + 34 x_18_19 + 34 x_18_19 + 34 x_18_19 + 34 x_18_19
   + 34 x_18_19 + 34 x_18_19 + 34 x_18_19 + 34 x_18_19 + 34 x_18_19
   + 34 x_18_19 + 34 x_18_19 + 34 x_18_19 + 34 x_18_19 + 34 x_18_19
   + 34 x_18_19 + 34 x_18_19 + 34 x_18_19 + 34 x_18_19 + 34 x_18_19
   + 34 x_18_19 + 34 x_18_19 + 34 x_18_19 + 34 x_18_19 + 34 x_18_19
   + 34 x_18_19 + 34 x_18_19 + 34 x_18_19 + 34 x_18_19 + 34 x_18_19
   + 34 x_18_19 + 34 x_18_19 + 34 x_18_19 + 34 x_18_19 + 34 x_18_19
   + 34 x_18_19 + 34 x_18_19 + 34 x_18_19 + 34 x_18_19 + 34 x_18_19
   + 34 x_18_19 + 34 x_18_19 + 34 x_18_19 + 34 x_18_19 + 34 x_18_19
   + 34 x_18_19 + 34 x_18_19 + 34 x_18_19 + 34 x_18_19 + 34 x_18_19
   + 34 x_18_19 + 34 x_18_19 + 34 x_18_19 + 34 x_18_19 + 34 x_18_19
   + 34 x_18_19 + 34 x_18_19 + 34 x_18_19 + 34 x_18_19 + 34 x_18_19
   + 34 x_18_19 + 34 x_18_19 + 34 x_18_19 + 34 x_18_19 + 34 x_18_19
   + 34 x_18_19 + 34 x_18_19 + 34 x_18_19 + 34 x_18_19 + 34 x_18_19
   + 34 x_18_19 + 34 x_18_19 + 34 x_18_19 + 34 x_18_19 + 370 Constant
Subject To
 c_0: y_0 = 1
 c_1_0: y_0 >= 1
 c_1_1: y_1 >= 1
 c_1_2: y_2 >= 1
 c_1_3: y_3 >= 1
 c_1_4: y_4 >= 1
 c_1_5: y_5 >= 1
 c_1_6: y_6 >= 1
 c_1_7: y_7 >= 1
 c_1_8: y_8 >= 1
 c_1_9: y_9 >= 1
 c_1_10: y_10 >= 1
 c_1_11: y_11 >= 1
 c_1_12: y_12 >= 1
 c_1_13: y_13 >= 1
 c_1_14: y_14 >= 1
 c_1_15: y_15 >= 1
 c_1_16: y_16 + y_17 >= 1
 c_1_17: y_16 + y_17 >= 1
 c_1_18: y_18 >= 1
 c_1_19: y_19 >= 1
 c_2_0: - 2 y_0 + x_0_3 + x_0_4 + x_0_5 + x_0_7 + x_0_8 + x_0_9 + x_0_14
   + x_0_18 + x_0_19 = 0
 c_2_1: - 2 y_1 + x_1_6 + x_1_7 + x_1_8 + x_1_11 + x_1_15 + x_1_16 + x_1_18
   + x_1_19 = 0
 c_2_2: - 2 y_2 + x_2_3 + x_2_4 + x_2_7 + x_2_10 + x_2_12 + x_2_13 + x_2_14
   + x_2_15 + x_2_17 + x_2_19 = 0
 c_2_3: - 2 y_3 + x_0_3 + x_2_3 + x_3_4 + x_3_5 + x_3_7 + x_3_8 + x_3_9
   + x_3_11 + x_3_14 + x_3_18 + x_3_19 = 0
 c_2_4: - 2 y_4 + x_0_4 + x_2_4 + x_3_4 + x_4_6 + x_4_10 + x_4_13 + x_4_14
   + x_4_15 + x_4_17 + x_4_18 + x_4_19 = 0
 c_2_5: - 2 y_5 + x_0_5 + x_3_5 + x_5_9 + x_5_11 + x_5_15 = 0
 c_2_6: - 2 y_6 + x_1_6 + x_4_6 + x_6_11 + x_6_12 + x_6_15 + x_6_16
   + x_6_17 + x_6_19 = 0
 c_2_7: - 2 y_7 + x_0_7 + x_1_7 + x_2_7 + x_3_7 + x_7_9 + x_7_12 + x_7_13
   + x_7_16 + x_7_17 = 0
 c_2_8: - 2 y_8 + x_0_8 + x_1_8 + x_3_8 + x_8_11 + x_8_12 + x_8_15 + x_8_16
   + x_8_17 = 0
 c_2_9: - 2 y_9 + x_0_9 + x_3_9 + x_5_9 + x_7_9 + x_9_10 + x_9_13 + x_9_15
   + x_9_17 + x_9_18 + x_9_19 = 0
 c_2_10: - 2 y_10 + x_2_10 + x_4_10 + x_9_10 + x_10_11 + x_10_13 + x_10_15
   + x_10_18 = 0
 c_2_11: - 2 y_11 + x_1_11 + x_3_11 + x_5_11 + x_6_11 + x_8_11 + x_10_11
   + x_11_12 + x_11_13 + x_11_14 + x_11_19 = 0
 c_2_12: - 2 y_12 + x_2_12 + x_6_12 + x_7_12 + x_8_12 + x_11_12 + x_12_13
   + x_12_14 + x_12_16 + x_12_17 + x_12_18 + x_12_19 = 0
 c_2_13: - 2 y_13 + x_2_13 + x_4_13 + x_7_13 + x_9_13 + x_10_13 + x_11_13
   + x_12_13 + x_13_17 + x_13_18 + x_13_19 = 0
 c_2_14: - 2 y_14 + x_0_14 + x_2_14 + x_3_14 + x_4_14 + x_11_14 + x_12_14
   + x_14_17 + x_14_18 + x_14_19 = 0
 c_2_15: - 2 y_15 + x_1_15 + x_2_15 + x_4_15 + x_5_15 + x_6_15 + x_8_15
   + x_9_15 + x_10_15 + x_15_17 + x_15_19 = 0
 c_2_16: - 2 y_16 + x_1_16 + x_6_16 + x_7_16 + x_8_16 + x_12_16 + x_16_19
   + x_17_16 = 0
 c_2_17: - 2 y_17 + x_2_17 + x_4_17 + x_6_17 + x_7_17 + x_8_17 + x_9_17
   + x_12_17 + x_13_17 + x_14_17 + x_15_17 + x_17_16 + x_17_18 = 0
 c_2_18: - 2 y_18 + x_0_18 + x_1_18 + x_3_18 + x_4_18 + x_9_18 + x_10_18
   + x_12_18 + x_13_18 + x_14_18 + x_17_18 + 859 x_18_19 = 0
 c_2_19: - 2 y_19 + x_0_19 + x_1_19 + x_2_19 + x_3_19 + x_4_19 + x_6_19
   + x_9_19 + x_11_19 + x_12_19 + x_13_19 + x_14_19 + x_15_19 + x_16_19
   + 859 x_18_19 = 0
Bounds
 Constant = 1
Binaries
 y_0 y_1 y_2 y_3 y_4 y_5 y_6 y_7 y_8 y_9 y_10 y_11 y_12 y_13 y_14 y_15 y_16
 y_17 y_18 y_19 x_0_3 x_0_4 x_0_5 x_0_7 x_0_8 x_0_9 x_0_14 x_0_18 x_0_19
 x_1_6 x_1_7 x_1_8 x_1_11 x_1_15 x_1_16 x_1_18 x_1_19 x_2_3 x_2_4 x_2_7
 x_2_10 x_2_12 x_2_13 x_2_14 x_2_15 x_2_17 x_2_19 x_3_4 x_3_5 x_3_7 x_3_8
 x_3_9 x_3_11 x_3_14 x_3_18 x_3_19 x_4_6 x_4_10 x_4_13 x_4_14 x_4_15 x_4_17
 x_4_18 x_4_19 x_5_9 x_5_11 x_5_15 x_6_11 x_6_12 x_6_15 x_6_16 x_6_17
 x_6_19 x_7_9 x_7_12 x_7_13 x_7_16 x_7_17 x_8_11 x_8_12 x_8_15 x_8_16
 x_8_17 x_9_10 x_9_13 x_9_15 x_9_17 x_9_18 x_9_19 x_10_11 x_10_13 x_10_15
 x_10_18 x_11_12 x_11_13 x_11_14 x_11_19 x_12_13 x_12_14 x_12_16 x_12_17
 x_12_18 x_12_19 x_13_17 x_13_18 x_13_19 x_14_17 x_14_18 x_14_19 x_15_17
 x_15_19 x_16_19 x_17_16 x_17_18 x_18_19 x_18_19 x_18_19 x_18_19 x_18_19
 x_18_19 x_18_19 x_18_19 x_18_19 x_18_19 x_18_19 x_18_19 x_18_19 x_18_19
 x_18_19 x_18_19 x_18_19 x_18_19 x_18_19 x_18_19 x_18_19 x_18_19 x_18_19
 x_18_19 x_18_19 x_18_19 x_18_19 x_18_19 x_18_19 x_18_19 x_18_19 x_18_19
 x_18_19 x_18_19 x_18_19 x_18_19 x_18_19 x_18_19 x_18_19 x_18_19 x_18_19
 x_18_19 x_18_19 x_18_19 x_18_19 x_18_19 x_18_19 x_18_19 x_18_19 x_18_19
 x_18_19 x_18_19 x_18_19 x_18_19 x_18_19 x_18_19 x_18_19 x_18_19 x_18_19
 x_18_19 x_18_19 x_18_19 x_18_19 x_18_19 x_18_19 x_18_19 x_18_19 x_18_19
 x_18_19 x_18_19 x_18_19 x_18_19 x_18_19 x_18_19 x_18_19 x_18_19 x_18_19
 x_18_19 x_18_19 x_18_19 x_18_19 x_18_19 x_18_19 x_18_19 x_18_19 x_18_19
 x_18_19 x_18_19 x_18_19 x_18_19 x_18_19 x_18_19 x_18_19 x_18_19 x_18_19
 x_18_19 x_18_19 x_18_19 x_18_19 x_18_19 x_18_19 x_18_19 x_18_19 x_18_19
 x_18_19 x_18_19 x_18_19 x_18_19 x_18_19 x_18_19 x_18_19 x_18_19 x_18_19
 x_18_19 x_18_19 x_18_19 x_18_19 x_18_19 x_18_19 x_18_19 x_18_19 x_18_19
 x_18_19 x_18_19 x_18_19 x_18_19 x_18_19 x_18_19 x_18_19 x_18_19 x_18_19
 x_18_19 x_18_19 x_18_19 x_18_19 x_18_19 x_18_19 x_18_19 x_18_19 x_18_19
 x_18_19 x_18_19 x_18_19 x_18_19 x_18_19 x_18_19 x_18_19 x_18_19 x_18_19
 x_18_19 x_18_19 x_18_19 x_18_19 x_18_19 x_18_19 x_18_19 x_18_19 x_18_19
 x_18_19 x_18_19 x_18_19 x_18_19 x_18_19 x_18_19 x_18_19 x_18_19 x_18_19
 x_18_19 x_18_19 x_18_19 x_18_19 x_18_19 x_18_19 x_18_19 x_18_19 x_18_19
 x_18_19 x_18_19 x_18_19 x_18_19 x_18_19 x_18_19 x_18_19 x_18_19 x_18_19
 x_18_19 x_18_19 x_18_19 x_18_19 x_18_19 x_18_19 x_18_19 x_18_19 x_18_19
 x_18_19 x_18_19 x_18_19 x_18_19 x_18_19 x_18_19 x_18_19 x_18_19 x_18_19
 x_18_19 x_18_19 x_18_19 x_18_19 x_18_19 x_18_19 x_18_19 x_18_19 x_18_19
 x_18_19 x_18_19 x_18_19 x_18_19 x_18_19 x_18_19 x_18_19 x_18_19 x_18_19
 x_18_19 x_18_19 x_18_19 x_18_19 x_18_19 x_18_19 x_18_19 x_18_19 x_18_19
 x_18_19 x_18_19 x_18_19 x_18_19 x_18_19 x_18_19 x_18_19 x_18_19 x_18_19
 x_18_19 x_18_19 x_18_19 x_18_19 x_18_19 x_18_19 x_18_19 x_18_19 x_18_19
 x_18_19 x_18_19 x_18_19 x_18_19 x_18_19 x_18_19 x_18_19 x_18_19 x_18_19
 x_18_19 x_18_19 x_18_19 x_18_19 x_18_19 x_18_19 x_18_19 x_18_19 x_18_19
 x_18_19 x_18_19 x_18_19 x_18_19 x_18_19 x_18_19 x_18_19 x_18_19 x_18_19
 x_18_19 x_18_19 x_18_19 x_18_19 x_18_19 x_18_19 x_18_19 x_18_19 x_18_19
 x_18_19 x_18_19 x_18_19 x_18_19 x_18_19 x_18_19 x_18_19 x_18_19 x_18_19
 x_18_19 x_18_19 x_18_19 x_18_19 x_18_19 x_18_19 x_18_19 x_18_19 x_18_19
 x_18_19 x_18_19 x_18_19 x_18_19 x_18_19 x_18_19 x_18_19 x_18_19 x_18_19
 x_18_19 x_18_19 x_18_19 x_18_19 x_18_19 x_18_19 x_18_19 x_18_19 x_18_19
 x_18_19 x_18_19 x_18_19 x_18_19 x_18_19 x_18_19 x_18_19 x_18_19 x_18_19
 x_18_19 x_18_19 x_18_19 x_18_19 x_18_19 x_18_19 x_18_19 x_18_19 x_18_19
 x_18_19 x_18_19 x_18_19 x_18_19 x_18_19 x_18_19 x_18_19 x_18_19 x_18_19
 x_18_19 x_18_19 x_18_19 x_18_19 x_18_19 x_18_19 x_18_19 x_18_19 x_18_19
 x_18_19 x_18_19 x_18_19 x_18_19 x_18_19 x_18_19 x_18_19 x_18_19 x_18_19
 x_18_19 x_18_19 x_18_19 x_18_19 x_18_19 x_18_19 x_18_19 x_18_19 x_18_19
 x_18_19 x_18_19 x_18_19 x_18_19 x_18_19 x_18_19 x_18_19 x_18_19 x_18_19
 x_18_19 x_18_19 x_18_19 x_18_19 x_18_19 x_18_19 x_18_19 x_18_19 x_18_19
 x_18_19 x_18_19 x_18_19 x_18_19 x_18_19 x_18_19 x_18_19 x_18_19 x_18_19
 x_18_19 x_18_19 x_18_19 x_18_19 x_18_19 x_18_19 x_18_19 x_18_19 x_18_19
 x_18_19 x_18_19 x_18_19 x_18_19 x_18_19 x_18_19 x_18_19 x_18_19 x_18_19
 x_18_19 x_18_19 x_18_19 x_18_19 x_18_19 x_18_19 x_18_19 x_18_19 x_18_19
 x_18_19 x_18_19 x_18_19 x_18_19 x_18_19 x_18_19 x_18_19 x_18_19 x_18_19
 x_18_19 x_18_19 x_18_19 x_18_19 x_18_19 x_18_19 x_18_19 x_18_19 x_18_19
 x_18_19 x_18_19 x_18_19 x_18_19 x_18_19 x_18_19 x_18_19 x_18_19 x_18_19
 x_18_19 x_18_19 x_18_19 x_18_19 x_18_19 x_18_19 x_18_19 x_18_19 x_18_19
 x_18_19 x_18_19 x_18_19 x_18_19 x_18_19 x_18_19 x_18_19 x_18_19 x_18_19
 x_18_19 x_18_19 x_18_19 x_18_19 x_18_19 x_18_19 x_18_19 x_18_19 x_18_19
 x_18_19 x_18_19 x_18_19 x_18_19 x_18_19 x_18_19 x_18_19 x_18_19 x_18_19
 x_18_19 x_18_19 x_18_19 x_18_19 x_18_19 x_18_19 x_18_19 x_18_19 x_18_19
 x_18_19 x_18_19 x_18_19 x_18_19 x_18_19 x_18_19 x_18_19 x_18_19 x_18_19
 x_18_19 x_18_19 x_18_19 x_18_19 x_18_19 x_18_19 x_18_19 x_18_19 x_18_19
 x_18_19 x_18_19 x_18_19 x_18_19 x_18_19 x_18_19 x_18_19 x_18_19 x_18_19
 x_18_19 x_18_19 x_18_19 x_18_19 x_18_19 x_18_19 x_18_19 x_18_19 x_18_19
 x_18_19 x_18_19 x_18_19 x_18_19 x_18_19 x_18_19 x_18_19 x_18_19 x_18_19
 x_18_19 x_18_19 x_18_19 x_18_19 x_18_19 x_18_19 x_18_19 x_18_19 x_18_19
 x_18_19 x_18_19 x_18_19 x_18_19 x_18_19 x_18_19 x_18_19 x_18_19 x_18_19
 x_18_19 x_18_19 x_18_19 x_18_19 x_18_19 x_18_19 x_18_19 x_18_19 x_18_19
 x_18_19 x_18_19 x_18_19 x_18_19 x_18_19 x_18_19 x_18_19 x_18_19 x_18_19
 x_18_19 x_18_19 x_18_19 x_18_19 x_18_19 x_18_19 x_18_19 x_18_19 x_18_19
 x_18_19 x_18_19 x_18_19 x_18_19 x_18_19 x_18_19 x_18_19 x_18_19 x_18_19
 x_18_19 x_18_19 x_18_19 x_18_19 x_18_19 x_18_19 x_18_19 x_18_19 x_18_19
 x_18_19 x_18_19 x_18_19 x_18_19 x_18_19 x_18_19 x_18_19 x_18_19 x_18_19
 x_18_19 x_18_19 x_18_19 x_18_19 x_18_19 x_18_19 x_18_19 x_18_19 x_18_19
 x_18_19 x_18_19 x_18_19 x_18_19 x_18_19 x_18_19 x_18_19 x_18_19 x_18_19
 x_18_19 x_18_19 x_18_19 x_18_19 x_18_19 x_18_19 x_18_19 x_18_19 x_18_19
 x_18_19 x_18_19 x_18_19 x_18_19 x_18_19 x_18_19 x_18_19 x_18_19 x_18_19
 x_18_19 x_18_19 x_18_19 x_18_19 x_18_19 x_18_19 x_18_19 x_18_19 x_18_19
 x_18_19 x_18_19 x_18_19 x_18_19 x_18_19 x_18_19 x_18_19 x_18_19 x_18_19
 x_18_19 x_18_19 x_18_19 x_18_19 x_18_19 x_18_19 x_18_19 x_18_19 x_18_19
 x_18_19 x_18_19 x_18_19 x_18_19 x_18_19 x_18_19 x_18_19 x_18_19 x_18_19
 x_18_19 x_18_19 x_18_19 x_18_19 x_18_19 x_18_19 x_18_19 x_18_19 x_18_19
 x_18_19 x_18_19 x_18_19 x_18_19 x_18_19 x_18_19 x_18_19 x_18_19 x_18_19
 x_18_19 x_18_19 x_18_19 x_18_19 x_18_19 x_18_19 x_18_19 x_18_19 x_18_19
 x_18_19 x_18_19 x_18_19 x_18_19 x_18_19 x_18_19 x_18_19 x_18_19 x_18_19
 x_18_19 x_18_19 x_18_19 x_18_19 x_18_19 x_18_19 x_18_19 x_18_19 x_18_19
 x_18_19 x_18_19 x_18_19 x_18_19 x_18_19 x_18_19 x_18_19 x_18_19 x_18_19
 x_18_19 x_18_19 x_18_19 x_18_19 x_18_19 x_18_19 x_18_19 x_18_19 x_18_19
 x_18_19 x_18_19 x_18_19 x_18_19 x_18_19 x_18_19 x_18_19 x_18_19 x_18_19
 x_18_19 x_18_19 x_18_19 x_18_19 x_18_19 x_18_19 x_18_19 x_18_19 x_18_19
 x_18_19 x_18_19 x_18_19 x_18_19 x_18_19 x_18_19 x_18_19 x_18_19 x_18_19
 x_18_19 x_18_19 x_18_19 x_18_19 x_18_19 x_18_19 x_18_19 x_18_19 x_18_19
 x_18_19 x_18_19 x_18_19 x_18_19 x_18_19 x_18_19 x_18_19 x_18_19 x_18_19
 x_18_19 x_18_19 x_18_19 x_18_19 x_18_19 x_18_19 x_18_19 x_18_19 x_18_19
 x_18_19 x_18_19 x_18_19 x_18_19 x_18_19 x_18_19 x_18_19 x_18_19 x_18_19
 x_18_19 x_18_19 x_18_19 x_18_19 x_18_19 x_18_19 x_18_19 x_18_19 x_18_19
 x_18_19 x_18_19 x_18_19 x_18_19 x_18_19 x_18_19 x_18_19 x_18_19 x_18_19
 x_18_19 x_18_19 x_18_19 x_18_19 x_18_19 x_18_19 x_18_19 x_18_19 x_18_19
 x_18_19 x_18_19 x_18_19 x_18_19 x_18_19 x_18_19 x_18_19 x_18_19 x_18_19
 x_18_19 x_18_19 x_18_19 x_18_19 x_18_19 x_18_19 x_18_19 x_18_19
End
